Please solve the following SAT Problem encoded in DIMACS format, provide line of thoughts, write your final answer as a single solution at the end of response with header 'answer: ' : 
p cnf 10 70
-9 8 -10 0
2 1 -4 0
7 -2 8 0
8 1 4 0
-3 -10 4 0
3 10 4 0
4 8 5 0
1 -3 5 0
-10 -5 1 0
7 1 -2 0
7 -9 4 0
7 -10 -3 0
-2 1 7 0
8 4 -2 0
1 9 5 0
-9 -2 1 0
7 5 1 0
6 -10 1 0
2 -3 8 0
1 7 -9 0
-10 -3 5 0
-10 8 5 0
-4 7 8 0
-9 -3 4 0
4 7 -9 0
4 -5 -3 0
-9 -3 2 0
6 -2 3 0
-3 -2 1 0
6 1 -3 0
-9 8 -10 0
4 9 1 0
-2 -10 8 0
-3 -9 7 0
8 3 6 0
-7 -2 -10 0
-9 2 5 0
-3 6 -2 0
1 -2 3 0
1 7 9 0
-7 -9 5 0
5 7 -2 0
-1 3 4 0
4 1 -3 0
-9 8 5 0
-10 7 8 0
2 3 4 0
5 -1 7 0
-8 5 -1 0
7 8 -10 0
1 -3 5 0
-7 5 -3 0
8 -3 4 0
6 5 -7 0
6 5 -10 0
8 -10 -9 0
-10 6 7 0
-3 -8 1 0
6 1 -5 0
6 -2 -4 0
5 7 3 0
-2 7 -3 0
-10 -8 5 0
8 1 -10 0
9 7 -2 0
7 -1 4 0
-2 -3 1 0
4 -3 6 0
-2 6 5 0
8 4 6 0

